VER
4

OBJSENSE
MIN

VAR
94 1
F 94

CON
195 4
CRE 113
SVECQRE 73
L+ 1
L= 8

OBJACOORD
2
0 1.0
1 1.0

OBJBCOORD
7.168117761531528e-15

ACOORD
740
0 0 1.0
1 2 1.0
2 3 1.0
3 4 1.0
4 5 1.0
5 6 1.0
6 7 1.0
7 8 1.0
8 9 1.0
9 10 1.0
10 11 1.0
11 12 1.0
12 13 1.0
13 14 1.0
14 15 1.0
15 16 1.0
16 17 1.0
17 18 1.0
18 19 1.0
19 20 1.0
20 21 1.0
21 22 1.0
22 23 1.0
23 24 1.0
24 25 1.0
25 26 1.0
26 27 1.0
27 28 1.0
28 29 1.0
29 30 1.0
30 31 1.0
31 32 1.0
32 33 1.0
33 34 1.0
34 35 1.0
35 36 1.0
36 37 1.0
37 38 1.0
38 39 1.0
39 40 1.0
40 41 1.0
41 42 1.0
42 43 1.0
43 44 1.0
44 45 1.0
45 46 1.0
46 47 1.0
47 48 1.0
48 49 1.0
49 50 1.0
50 51 1.0
51 52 1.0
52 53 1.0
53 54 1.0
54 55 1.0
55 56 1.0
56 57 1.0
57 2 1.0
57 3 1.0
57 4 1.0
57 5 1.0
57 6 1.0
57 7 1.0
57 8 1.0
57 58 1.0
58 2 1.0
58 3 1.0
58 4 1.0
58 5 1.0
58 6 1.0
58 7 1.0
58 8 1.0
58 58 1.0
59 2 1.0
59 3 1.0
59 4 1.0
59 5 1.0
59 6 1.0
59 7 1.0
59 8 1.0
59 58 1.0
60 2 1.0
60 3 1.0
60 4 1.0
60 5 1.0
60 6 1.0
60 7 1.0
60 8 1.0
60 58 1.0
61 2 1.0
61 3 1.0
61 4 1.0
61 5 1.0
61 6 1.0
61 7 1.0
61 8 1.0
61 58 1.0
62 2 1.0
62 3 1.0
62 4 1.0
62 5 1.0
62 6 1.0
62 7 1.0
62 8 1.0
62 58 1.0
63 2 1.0
63 3 1.0
63 4 1.0
63 5 1.0
63 6 1.0
63 7 1.0
63 8 1.0
63 58 1.0
64 9 1.0
64 10 1.0
64 11 1.0
64 12 1.0
64 13 1.0
64 14 1.0
64 15 1.0
64 60 1.0
65 9 1.0
65 10 1.0
65 11 1.0
65 12 1.0
65 13 1.0
65 14 1.0
65 15 1.0
65 60 1.0
66 9 1.0
66 10 1.0
66 11 1.0
66 12 1.0
66 13 1.0
66 14 1.0
66 15 1.0
66 60 1.0
67 9 1.0
67 10 1.0
67 11 1.0
67 12 1.0
67 13 1.0
67 14 1.0
67 15 1.0
67 60 1.0
68 9 1.0
68 10 1.0
68 11 1.0
68 12 1.0
68 13 1.0
68 14 1.0
68 15 1.0
68 60 1.0
69 9 1.0
69 10 1.0
69 11 1.0
69 12 1.0
69 13 1.0
69 14 1.0
69 15 1.0
69 60 1.0
70 9 1.0
70 10 1.0
70 11 1.0
70 12 1.0
70 13 1.0
70 14 1.0
70 15 1.0
70 60 1.0
71 16 1.0
71 17 1.0
71 18 1.0
71 19 1.0
71 20 1.0
71 21 1.0
71 22 1.0
71 63 1.0
72 16 1.0
72 17 1.0
72 18 1.0
72 19 1.0
72 20 1.0
72 21 1.0
72 22 1.0
72 63 1.0
73 16 1.0
73 17 1.0
73 18 1.0
73 19 1.0
73 20 1.0
73 21 1.0
73 22 1.0
73 63 1.0
74 16 1.0
74 17 1.0
74 18 1.0
74 19 1.0
74 20 1.0
74 21 1.0
74 22 1.0
74 63 1.0
75 16 1.0
75 17 1.0
75 18 1.0
75 19 1.0
75 20 1.0
75 21 1.0
75 22 1.0
75 63 1.0
76 16 1.0
76 17 1.0
76 18 1.0
76 19 1.0
76 20 1.0
76 21 1.0
76 22 1.0
76 63 1.0
77 16 1.0
77 17 1.0
77 18 1.0
77 19 1.0
77 20 1.0
77 21 1.0
77 22 1.0
77 63 1.0
78 23 1.0
78 24 1.0
78 25 1.0
78 26 1.0
78 27 1.0
78 28 1.0
78 29 1.0
78 67 1.0
79 23 1.0
79 24 1.0
79 25 1.0
79 26 1.0
79 27 1.0
79 28 1.0
79 29 1.0
79 67 1.0
80 23 1.0
80 24 1.0
80 25 1.0
80 26 1.0
80 27 1.0
80 28 1.0
80 29 1.0
80 67 1.0
81 23 1.0
81 24 1.0
81 25 1.0
81 26 1.0
81 27 1.0
81 28 1.0
81 29 1.0
81 67 1.0
82 23 1.0
82 24 1.0
82 25 1.0
82 26 1.0
82 27 1.0
82 28 1.0
82 29 1.0
82 67 1.0
83 23 1.0
83 24 1.0
83 25 1.0
83 26 1.0
83 27 1.0
83 28 1.0
83 29 1.0
83 67 1.0
84 23 1.0
84 24 1.0
84 25 1.0
84 26 1.0
84 27 1.0
84 28 1.0
84 29 1.0
84 67 1.0
85 30 1.0
85 31 1.0
85 32 1.0
85 33 1.0
85 34 1.0
85 35 1.0
85 36 1.0
85 72 1.0
86 30 1.0
86 31 1.0
86 32 1.0
86 33 1.0
86 34 1.0
86 35 1.0
86 36 1.0
86 72 1.0
87 30 1.0
87 31 1.0
87 32 1.0
87 33 1.0
87 34 1.0
87 35 1.0
87 36 1.0
87 72 1.0
88 30 1.0
88 31 1.0
88 32 1.0
88 33 1.0
88 34 1.0
88 35 1.0
88 36 1.0
88 72 1.0
89 30 1.0
89 31 1.0
89 32 1.0
89 33 1.0
89 34 1.0
89 35 1.0
89 36 1.0
89 72 1.0
90 30 1.0
90 31 1.0
90 32 1.0
90 33 1.0
90 34 1.0
90 35 1.0
90 36 1.0
90 72 1.0
91 30 1.0
91 31 1.0
91 32 1.0
91 33 1.0
91 34 1.0
91 35 1.0
91 36 1.0
91 72 1.0
92 37 1.0
92 38 1.0
92 39 1.0
92 40 1.0
92 41 1.0
92 42 1.0
92 43 1.0
92 78 1.0
93 37 1.0
93 38 1.0
93 39 1.0
93 40 1.0
93 41 1.0
93 42 1.0
93 43 1.0
93 78 1.0
94 37 1.0
94 38 1.0
94 39 1.0
94 40 1.0
94 41 1.0
94 42 1.0
94 43 1.0
94 78 1.0
95 37 1.0
95 38 1.0
95 39 1.0
95 40 1.0
95 41 1.0
95 42 1.0
95 43 1.0
95 78 1.0
96 37 1.0
96 38 1.0
96 39 1.0
96 40 1.0
96 41 1.0
96 42 1.0
96 43 1.0
96 78 1.0
97 37 1.0
97 38 1.0
97 39 1.0
97 40 1.0
97 41 1.0
97 42 1.0
97 43 1.0
97 78 1.0
98 37 1.0
98 38 1.0
98 39 1.0
98 40 1.0
98 41 1.0
98 42 1.0
98 43 1.0
98 78 1.0
99 44 1.0
99 45 1.0
99 46 1.0
99 47 1.0
99 48 1.0
99 49 1.0
99 50 1.0
99 85 1.0
100 44 1.0
100 45 1.0
100 46 1.0
100 47 1.0
100 48 1.0
100 49 1.0
100 50 1.0
100 85 1.0
101 44 1.0
101 45 1.0
101 46 1.0
101 47 1.0
101 48 1.0
101 49 1.0
101 50 1.0
101 85 1.0
102 44 1.0
102 45 1.0
102 46 1.0
102 47 1.0
102 48 1.0
102 49 1.0
102 50 1.0
102 85 1.0
103 44 1.0
103 45 1.0
103 46 1.0
103 47 1.0
103 48 1.0
103 49 1.0
103 50 1.0
103 85 1.0
104 44 1.0
104 45 1.0
104 46 1.0
104 47 1.0
104 48 1.0
104 49 1.0
104 50 1.0
104 85 1.0
105 44 1.0
105 45 1.0
105 46 1.0
105 47 1.0
105 48 1.0
105 49 1.0
105 50 1.0
105 85 1.0
106 51 1.0
106 52 1.0
106 53 1.0
106 54 1.0
106 55 1.0
106 56 1.0
106 57 1.0
106 93 1.0
107 51 1.0
107 52 1.0
107 53 1.0
107 54 1.0
107 55 1.0
107 56 1.0
107 57 1.0
107 93 1.0
108 51 1.0
108 52 1.0
108 53 1.0
108 54 1.0
108 55 1.0
108 56 1.0
108 57 1.0
108 93 1.0
109 51 1.0
109 52 1.0
109 53 1.0
109 54 1.0
109 55 1.0
109 56 1.0
109 57 1.0
109 93 1.0
110 51 1.0
110 52 1.0
110 53 1.0
110 54 1.0
110 55 1.0
110 56 1.0
110 57 1.0
110 93 1.0
111 51 1.0
111 52 1.0
111 53 1.0
111 54 1.0
111 55 1.0
111 56 1.0
111 57 1.0
111 93 1.0
112 51 1.0
112 52 1.0
112 53 1.0
112 54 1.0
112 55 1.0
112 56 1.0
112 57 1.0
112 93 1.0
113 1 1.0
114 58 1.0
115 59 1.0
116 60 1.0
117 61 1.0
118 62 1.0
119 63 1.0
120 64 1.0
121 65 1.0
122 66 1.0
123 67 1.0
124 68 1.0
125 69 1.0
126 70 1.0
127 71 1.0
128 72 1.0
129 73 1.0
130 74 1.0
131 75 1.0
132 76 1.0
133 77 1.0
134 78 1.0
135 79 1.0
136 80 1.0
137 81 1.0
138 82 1.0
139 83 1.0
140 84 1.0
141 85 1.0
142 86 1.0
143 87 1.0
144 88 1.0
145 89 1.0
146 90 1.0
147 91 1.0
148 92 1.0
149 93 1.0
150 2 1.0
150 3 1.0
150 4 1.0
150 5 1.0
150 6 1.0
150 7 1.0
150 8 1.0
150 58 1.0
152 9 1.0
152 10 1.0
152 11 1.0
152 12 1.0
152 13 1.0
152 14 1.0
152 15 1.0
152 60 1.0
155 16 1.0
155 17 1.0
155 18 1.0
155 19 1.0
155 20 1.0
155 21 1.0
155 22 1.0
155 63 1.0
159 23 1.0
159 24 1.0
159 25 1.0
159 26 1.0
159 27 1.0
159 28 1.0
159 29 1.0
159 67 1.0
164 30 1.0
164 31 1.0
164 32 1.0
164 33 1.0
164 34 1.0
164 35 1.0
164 36 1.0
164 72 1.0
170 37 1.0
170 38 1.0
170 39 1.0
170 40 1.0
170 41 1.0
170 42 1.0
170 43 1.0
170 78 1.0
177 44 1.0
177 45 1.0
177 46 1.0
177 47 1.0
177 48 1.0
177 49 1.0
177 50 1.0
177 85 1.0
185 51 1.0
185 52 1.0
185 53 1.0
185 54 1.0
185 55 1.0
185 56 1.0
185 57 1.0
185 93 1.0
186 2 -1.0
186 3 -1.0
186 4 -1.0
186 5 -1.0
186 6 -1.0
186 7 -1.0
186 8 -1.0
186 9 -1.0
186 10 -1.0
186 11 -1.0
186 12 -1.0
186 13 -1.0
186 14 -1.0
186 15 -1.0
186 16 -1.0
186 17 -1.0
186 18 -1.0
186 19 -1.0
186 20 -1.0
186 21 -1.0
186 22 -1.0
186 23 -1.0
186 24 -1.0
186 25 -1.0
186 26 -1.0
186 27 -1.0
186 28 -1.0
186 29 -1.0
186 30 -1.0
186 31 -1.0
186 32 -1.0
186 33 -1.0
186 34 -1.0
186 35 -1.0
186 36 -1.0
186 37 -1.0
186 38 -1.0
186 39 -1.0
186 40 -1.0
186 41 -1.0
186 42 -1.0
186 43 -1.0
186 44 -1.0
186 45 -1.0
186 46 -1.0
186 47 -1.0
186 48 -1.0
186 49 -1.0
186 50 -1.0
186 51 -1.0
186 52 -1.0
186 53 -1.0
186 54 -1.0
186 55 -1.0
186 56 -1.0
186 57 -1.0
186 58 -1.0
186 60 -1.0
186 63 -1.0
186 67 -1.0
186 72 -1.0
186 77 2.510274717654232e-17
186 78 -1.0
186 83 6.337634323077471e-17
186 84 9.466024333391947e-17
186 85 -0.9999999999999998
186 90 4.875261385881498e-09
186 91 7.281793261936087e-09
186 92 1.8384180259571522e-08
186 93 4.440892098500626e-16
187 9 1.0
187 16 1.0
187 23 1.0
187 30 1.0
187 37 1.0
187 44 1.0
187 51 1.0
187 58 1.0
188 2 1.0
188 17 1.0
188 24 1.0
188 31 1.0
188 38 1.0
188 45 1.0
188 52 1.0
188 60 1.0
189 3 1.0
189 10 1.0
189 25 1.0
189 32 1.0
189 39 1.0
189 46 1.0
189 53 1.0
189 63 1.0
190 4 1.0
190 11 1.0
190 18 1.0
190 33 1.0
190 40 1.0
190 47 1.0
190 54 1.0
190 67 1.0
191 5 1.0
191 12 1.0
191 19 1.0
191 26 1.0
191 41 1.0
191 48 1.0
191 55 1.0
191 72 1.0
192 6 1.0
192 13 1.0
192 20 1.0
192 27 1.0
192 34 1.0
192 49 1.0
192 56 1.0
192 78 1.0
193 7 1.0
193 14 1.0
193 21 1.0
193 28 1.0
193 35 1.0
193 42 1.0
193 57 1.0
193 85 1.0
194 8 1.0
194 15 1.0
194 22 1.0
194 29 1.0
194 36 1.0
194 43 1.0
194 50 1.0
194 93 1.0

BCOORD
8
187 -9.381698726556142e-17
188 -3.383795524442472e-17
189 -1.934993744102749e-17
190 -7.330711465018883e-18
191 1.1884086790333587e-17
192 2.6512256554788884e-17
193 1.689890419082095e-16
194 1.0000000000000004
